p tw 587 668
1 2
2 3
11 12
101 102
101 134
102 103
103 104
103 328
104 105
105 106
105 143
106 107
107 108
107 128
108 109
109 110
109 131
110 111
12 13
111 112
111 125
112 113
113 114
113 137
114 115
115 116
115 416
116 117
117 118
117 145
118 119
119 120
119 140
120 547
13 14
121 122
122 123
123 124
125 126
126 127
128 129
129 130
14 15
14 19
131 132
132 133
133 145
134 135
135 136
136 145
137 138
138 139
139 145
140 141
15 16
141 142
142 145
143 144
144 145
145 146
145 168
146 147
147 148
148 149
149 150
150 151
150 170
16 17
151 152
152 153
153 154
154 155
154 159
155 156
156 157
157 158
158 165
159 160
160 161
17 18
161 162
162 163
163 164
164 165
165 166
166 167
167 168
168 169
169 574
170 171
18 24
171 172
172 173
173 174
174 175
175 176
176 177
177 178
177 179
178 179
179 180
180 181
180 219
19 20
181 182
182 183
183 184
184 185
184 187
185 186
186 229
187 188
188 189
189 190
189 219
190 191
20 21
191 192
192 193
193 194
193 198
194 195
195 196
196 197
197 204
198 199
199 200
200 201
3 4
21 22
201 202
202 203
203 204
204 205
205 206
206 207
207 208
207 303
208 209
209 210
209 216
210 211
22 23
211 212
211 216
212 213
213 214
214 215
215 293
216 217
217 218
218 229
219 220
220 221
220 248
23 24
221 222
222 223
222 248
223 224
224 225
225 226
226 227
226 229
227 228
228 229
228 248
229 230
230 231
24 25
231 232
232 233
233 234
233 238
234 235
235 236
236 237
237 244
238 239
239 240
240 241
25 26
241 242
242 243
243 244
244 245
245 246
246 247
247 248
247 574
248 249
249 250
250 251
26 27
251 252
252 253
253 254
254 255
255 256
256 257
257 258
258 259
259 260
259 261
260 261
260 263
27 28
261 262
262 263
262 574
263 264
263 302
264 265
264 303
265 266
266 267
267 268
267 303
268 269
268 303
269 270
270 271
28 29
28 573
271 272
272 273
273 274
274 275
275 276
276 277
277 278
278 279
279 280
280 281
280 285
29 30
281 282
282 283
283 284
284 291
285 286
286 287
287 288
288 289
289 290
290 291
30 31
30 574
291 292
292 293
293 294
294 295
295 296
296 297
297 298
298 299
299 300
300 301
4 5
31 32
301 302
303 304
304 305
304 569
305 306
306 307
306 308
307 308
308 309
309 310
309 317
310 311
32 33
311 312
312 313
313 314
314 315
315 316
316 325
317 318
318 319
319 320
320 321
33 34
321 322
322 323
323 324
324 325
325 326
326 327
327 569
328 329
329 330
330 331
34 35
34 515
331 332
332 333
333 443
334 335
335 336
336 337
337 338
338 339
339 340
340 341
35 36
341 342
341 345
342 343
343 344
344 347
345 346
346 347
347 348
348 349
349 350
350 351
36 37
351 352
352 353
352 355
353 354
354 355
354 362
355 356
356 357
357 358
358 359
359 360
360 361
37 38
361 362
362 363
363 364
364 365
364 412
365 366
366 367
367 368
367 413
368 369
368 574
369 370
370 371
370 406
38 39
371 372
372 373
372 406
373 374
373 399
373 404
374 375
375 376
376 377
377 378
378 379
379 380
380 381
380 399
39 40
381 382
382 383
383 384
384 385
384 394
385 386
386 387
387 388
388 389
388 395
389 390
390 391
40 41
391 392
392 393
393 394
395 396
396 397
397 398
398 406
399 400
400 401
5 6
41 42
401 402
402 403
403 406
404 405
405 406
406 407
407 408
408 409
409 410
410 411
42 43
411 412
413 414
414 415
415 443
416 417
417 418
418 419
418 441
419 420
420 421
43 44
421 422
422 423
423 424
423 443
424 425
425 426
426 427
427 428
427 432
428 429
429 430
430 431
44 45
431 438
432 433
433 434
434 435
435 436
436 437
437 438
438 439
439 440
440 441
45 46
441 442
442 574
443 444
444 445
445 446
446 447
447 448
448 449
449 450
449 466
450 451
46 47
451 452
452 453
453 454
454 455
455 456
456 457
457 458
457 462
458 459
459 460
460 461
47 48
461 462
461 466
462 463
463 464
463 574
464 465
465 574
466 467
467 468
468 469
469 470
470 471
470 504
48 49
471 472
471 475
472 473
473 474
474 475
475 476
476 477
477 478
478 479
479 480
479 484
480 481
49 50
481 482
482 483
483 490
484 485
485 486
486 487
487 488
488 489
489 490
490 491
50 51
491 492
492 493
493 494
493 505
494 495
495 496
495 505
496 497
497 498
498 499
499 500
500 501
6 7
6 8
51 52
501 502
502 503
503 504
504 505
505 506
506 507
506 569
507 508
507 509
508 509
509 510
510 511
52 53
511 569
512 513
513 514
514 547
515 516
516 517
517 518
518 519
519 520
520 521
53 54
521 522
521 547
522 523
522 545
523 524
524 525
525 526
526 527
527 528
527 569
528 529
529 530
530 531
54 55
531 532
531 536
532 533
533 534
534 535
535 542
536 537
537 538
538 539
539 540
540 541
55 56
541 542
542 543
543 544
544 545
545 546
546 574
547 548
548 549
549 550
550 551
56 57
551 552
552 553
552 574
553 554
554 555
555 556
556 557
556 561
557 558
558 559
559 560
560 567
57 58
561 562
562 563
563 564
564 565
565 566
566 567
567 568
568 569
569 570
570 571
58 59
58 62
571 572
572 573
573 574
574 575
575 576
576 577
576 579
577 578
577 579
578 586
579 580
580 581
580 584
59 60
581 582
582 583
583 584
584 585
585 586
586 587
60 61
7 586
61 62
62 63
63 64
64 65
65 66
65 84
66 67
67 68
68 69
69 70
70 71
8 9
71 72
72 73
72 85
73 74
74 75
74 76
75 76
76 77
77 78
78 79
79 80
80 81
9 10
81 82
82 83
83 84
85 86
86 87
87 124
87 127
87 130
87 88
88 89
89 90
90 91
10 11
91 92
92 93
93 94
94 95
95 512
95 96
96 97
97 121
97 98
98 99
99 334
99 100
100 101
